File : Instances/p64
Use 136 s

22295

1 0 1 0 1 0 0 1 0 1 0 0 1 1 0 0 1 0 0 1 0 1 0 1 0 0 0 1 0 0 
7 19 21 27 2 12 21 27 27 27 4 19 13 13 19 7 13 13 27 0 27 16 23 0 23 27 27 19 4 2 19 19 4 16 27 12 9 9 16 16 7 9 12 4 9 19 13 21 19 19 0 16 2 16 9 12 7 9 27 7 4 0 7 9 13 12 23 19 19 12 7 12 19 9 23 23 13 23 9 16 23 0 9 7 4 13 19 2 27 7 27 19 7 7 2 13 27 12 0 19 19 21 12 7 4 0 4 27 27 13 19 4 27 12 12 9 27 7 0 9 9 12 0 19 9 16 2 12 19 0 27 21 12 13 23 9 13 13 0 23 12 27 12 12 7 2 16 21 27 7 27 0 23 0 13 12 2 16 13 13 13 27 23 2 23 27 23 4 13 21 23 13 19 23 4 2 0 23 4 23 2 21 2 19 12 9 12 23 0 21 2 21 19 4 7 12 7 21 23 19 
